100
7 97
11 43
14 78
28 6
15 16
1 33
11 7
0 10
9 71
2 42
14 26
27 20
9 55
5 45
20 64
13 29
24 37
5 74
10 70
27 75
20 17
5 80
10 42
25 27
9 89
18 57
29 84
21 95
0 10
4 77
18 32
9 87
11 82
12 36
2 94
1 91
14 72
16 88
25 66
6 31
8 37
13 76
1 17
8 16
15 64
6 54
22 3
7 18
14 55
1 42
5 18
23 13
23 9
6 9
21 21
8 84
20 81
21 83
9 83
7 31
25 45
20 96
14 79
5 38
2 20
21 88
1 17
19 34
23 7
28 7
21 36
20 38
3 3
16 21
2 72
29 86
22 89
29 70
10 48
10 56
24 92
11 11
15 98
27 40
17 41
7 85
15 90
3 99
0 48
22 32
28 24
6 42
12 52
10 35
23 72
26 20
22 39
19 29
22 29
0 46
